************************************************************************
file with basedata            : md339_.bas
initial value random generator: 1131856427
************************************************************************
projects                      :  1
jobs (incl. supersource/sink ):  22
horizon                       :  161
RESOURCES
  - renewable                 :  2   R
  - nonrenewable              :  2   N
  - doubly constrained        :  0   D
************************************************************************
PROJECT INFORMATION:
pronr.  #jobs rel.date duedate tardcost  MPM-Time
    1     20      0       23        4       23
************************************************************************
PRECEDENCE RELATIONS:
jobnr.    #modes  #successors   successors
   1        1          3           2   3   4
   2        3          2          11  21
   3        3          2           5   8
   4        3          1           5
   5        3          3           6   9  15
   6        3          3           7  11  13
   7        3          3          10  14  16
   8        3          3          12  13  15
   9        3          2          14  16
  10        3          1          19
  11        3          1          12
  12        3          2          17  19
  13        3          2          16  18
  14        3          2          17  18
  15        3          2          18  20
  16        3          2          17  21
  17        3          1          20
  18        3          2          19  21
  19        3          1          22
  20        3          1          22
  21        3          1          22
  22        1          0        
************************************************************************
REQUESTS/DURATIONS:
jobnr. mode duration  R 1  R 2  N 1  N 2
------------------------------------------------------------------------
  1      1     0       0    0    0    0
  2      1     6       0    3    0    5
         2     8       0    3    8    0
         3     9       7    0    0    5
  3      1     1       0    3    0    9
         2     5       6    0    0    8
         3     7       0    1    0    6
  4      1     3       9    0    7    0
         2     6       7    0    4    0
         3     9       6    0    2    0
  5      1     2       0    7    0    4
         2     4       0    4    4    0
         3     4       4    0    3    0
  6      1     4       5    0    0    1
         2     5       2    0    6    0
         3     5       0    2    6    0
  7      1     3       8    0    8    0
         2     7       0    3    5    0
         3     9       5    0    2    0
  8      1     7       3    0    0    6
         2     9       2    0    0    6
         3     9       0    7    0    6
  9      1     1       6    0    0    2
         2     5       0    3    0    1
         3    10       4    0    3    0
 10      1     4       0    8    3    0
         2     4       0    8    0    9
         3     5       8    0    0    8
 11      1     2       6    0    0    3
         2     7       0    1    0    2
         3     8       6    0    9    0
 12      1     4       0    2    0    4
         2     5       0    2    0    3
         3     6       0    1    6    0
 13      1     1       6    0    9    0
         2     7       0    7    9    0
         3    10       1    0    0    5
 14      1     2       0    5    0   10
         2     9       0    5    0    9
         3    10       3    0    0    6
 15      1     4       0    3    0    6
         2     8       0    3    0    4
         3    10       0    2    8    0
 16      1     7       8    0    5    0
         2     7       0    9    0    6
         3     9       8    0    0    2
 17      1     3       9    0    0    7
         2     6       4    0    0    5
         3     8       3    0    0    4
 18      1     2       6    0    0    7
         2     5       0    3    7    0
         3     9       0    2    0    4
 19      1     5       0    3    0    9
         2     9       0    3    0    6
         3    10       5    0    9    0
 20      1     1       8    0    5    0
         2     4       0    6    3    0
         3     7       0    3    0    5
 21      1     4       0    7    8    0
         2     4       8    0    8    0
         3     7       4    0    7    0
 22      1     0       0    0    0    0
************************************************************************
RESOURCEAVAILABILITIES:
  R 1  R 2  N 1  N 2
   18   19   82   79
************************************************************************
MAXIMAL LAGS:
from  to  type  delay
    1   12   ES      0
    1    2   ES      0
    2   12   ES      0
    1    3   ES      0
    3   12   ES      0
    1    4   ES      0
    4   12   ES      0
    1    5   ES      0
    5   12   ES      0
    1    6   ES      0
    6   12   ES      0
    1    7   ES      0
    7   12   ES      0
    1    8   ES      0
    8   12   ES      0
    1    9   ES      0
    9   12   ES      0
    1   10   ES      0
   10   12   ES      0
    1   11   ES      0
   11   12   ES      0
    1   12   ES      0
    2   11   SS     -1
    2   11   SE     -8
    2   11   ES      4
    2   11   EE     -1
    2   21   SS    -11
    2   21   SE      1
    2   21   ES      3
    2   21   EE      0
    3    5   SS     -7
    3    5   SE     -1
    3    5   ES     -9
    3    5   EE     -2
    3    8   SS      9
    3    8   SE     -5
    3    8   ES      5
    3    8   EE     12
    4    5   SS     -9
    4    5   SE     -3
    4    5   ES     -3
    4    5   EE      3
    5    6   SS     -3
    5    6   SE     -4
    5    6   ES     -6
    5    6   EE    -12
    5    9   SS     11
    5    9   SE      8
    5    9   ES      6
    5    9   EE      0
    5   15   SS     -6
    5   15   SE     -3
    5   15   ES      8
    5   15   EE      4
    6    7   SS    -11
    6    7   SE      2
    6    7   ES      7
    6    7   EE      3
    6   11   SS    -11
    6   11   SE     -1
    6   11   ES    -12
    6   11   EE      7
    6   13   SS      2
    6   13   SE     -2
    6   13   ES     -3
    6   13   EE     -1
    7   10   SS     -9
    7   10   SE    -12
    7   10   ES     -1
    7   10   EE     11
    7   14   SS     -7
    7   14   SE      0
    7   14   ES     -1
    7   14   EE    -12
    7   16   SS     -9
    7   16   SE      1
    7   16   ES      3
    7   16   EE     -6
    8   13   SS    -10
    8   13   SE      4
    8   13   ES      4
    8   13   EE     -8
    8   15   SS      1
    8   15   SE     -9
    8   15   ES      3
    8   15   EE    -12
    9   14   SS     -8
    9   14   SE     12
    9   14   ES      9
    9   14   EE     -4
    9   16   SS     -5
    9   16   SE      3
   16    9   SE      0
    9   16   ES      0
    9   16   EE     -1
   10   19   SS     -3
   10   19   SE     -1
   10   19   ES      1
   10   19   EE     -7
   12   17   SS      5
   12   17   SE     -4
   12   17   ES     -9
   12   17   EE      2
   12   19   SS      9
   12   19   SE      2
   12   19   ES     -7
   12   19   EE     -8
   13   16   SS     -1
   13   16   SE     11
   13   16   ES      1
   13   16   EE    -12
   13   18   SS     -1
   13   18   SE     10
   13   18   ES     -6
   13   18   EE     -9
   14   17   SS     -6
   14   17   SE     -3
   14   17   ES    -11
   14   17   EE     -8
   14   18   SS      0
   14   18   SE      1
   14   18   ES     11
   14   18   EE     -2
   15   18   SS    -11
   15   18   SE     -7
   15   18   ES      9
   15   18   EE     -6
   15   20   SS      3
   15   20   SE      9
   15   20   ES     -4
   15   20   EE     -9
   16   17   SS      1
   16   17   SE      3
   16   17   ES      5
   16   17   EE      3
   16   21   SS      9
   16   21   SE     10
   16   21   ES     -8
   16   21   EE     -2
   17   20   SS     12
   17   20   SE     12
   17   20   ES     12
   17   20   EE      0
   18   19   SS      4
   18   19   SE     11
   18   19   ES     11
   18   19   EE      0
   18   21   SS     -8
   18   21   SE     -9
   18   21   ES     -9
   18   21   EE    -12
   19   22   SS     -8
   19   22   SE     -8
   19   22   ES     -1
   19   22   EE      4
   20   22   SS    -12
   20   22   SE     12
   20   22   ES      9
   20   22   EE     -5
   21   22   SS    -11
   21   22   SE      9
   21   22   ES     -2
   21   22   EE      1
************************************************************************
